145
10000
2593
4783
907
4039
1754
454
1594
595
1643
2448
3496
215
957
4403
4960
94
1731
1112
1072
2387
464
3957
199
1864
1635
2554
789
102
1065
656
1327
2114
1898
3763
2490
532
4259
2373
207
1091
2480
181
4958
2995
3686
379
4010
3537
2165
4684
3151
4732
1122
461
268
3397
1230
4783
2488
3757
4044
2481
2692
1671
3463
4618
3864
2016
91
217
3604
225
452
4866
1806
1422
3816
1284
3568
119
2512
2766
1200
948
1
84
3999
1731
3757
843
619
2590
3811
2401
3114
337
996
1
2216
3153
2834
2049
907
1191
3191
3462
830
1262
1101
1489
2494
1541
2875
1276
3528
1656
3722
219
3692
1354
1312
1945
578
2325
574
2840
1711
343
1508
1529
3529
1155
298
1525
589
4334
14
1805
2849
2415
3937
3952
1083
1502
3237
